set Cells := 6 10 11 15 24 25 26 27 28 29 30 31 32 35 46 47 48 49 50 51 52 53 54 57 63 64 65 66 67 68 69 70 72 75 76 78 79 82 86 87 88 90 91 92 93 97 98 99 106 107 108 109 110 111 113 114 115 116 117 118 119 120 127 129 130 135 136 147 151 152 153 159 178 179 180 181 185 186 187 188 189 200 205 206 208 212 213 214 225 226 228 229 230 233 234 248 249 253 266 268 270 271 273 291 292 313 333 353 372 374 375 376 394 ;

set E:= (6,26) (10,11) (10,30) (11,31) (15,35) (24,25) (25,26) (26,27) (26,46) (27,28) (27,47) (28,29) (28,48) (29,30) (29,49) (30,31) (30,50) (31,32) (31,51) (32,52) (46,47) (46,66) (47,48) (47,67) (48,49) (48,68) (49,50) (49,69) (50,51) (50,70) (51,52) (52,53) (52,72) (53,54) (63,64) (64,65) (65,66) (66,67) (66,86) (67,68) (67,87) (68,69) (68,88) (69,70) (70,90) (72,92) (75,76) (78,79) (78,98) (79,99) (86,87) (86,106) (87,88) (87,107) (88,108) (90,91) (90,110) (91,92) (91,111) (92,93) (93,113) (97,98) (97,117) (98,99) (98,118) (99,119) (106,107) (107,108) (107,127) (108,109) (109,110) (109,129) (110,111) (110,130) (113,114) (114,115) (115,116) (115,135) (116,117) (116,136) (117,118) (118,119) (119,120) (127,147) (129,130) (135,136) (151,152) (152,153) (159,179) (178,179) (179,180) (180,200) (185,186) (185,205) (186,187) (186,206) (187,188) (188,189) (188,208) (205,206) (205,225) (206,226) (208,228) (212,213) (213,214) (213,233) (214,234) (225,226) (228,229) (228,248) (229,230) (229,249) (233,234) (233,253) (248,249) (248,268) (253,273) (270,271) (271,291) (291,292) (313,333) (333,353) (374,375) (374,394) (375,376) ; 
set Landuses := ForestDryRich ForestWetPoor ForestWetRich OpenDryRich OpenWetPoor OpenWetRich ;
param PhyloDiversity default 0 := [ForestDryRich,6] 0.57 [ForestDryRich,10] 0.79 [ForestDryRich,11] 0.79 [ForestDryRich,15] 0.89 [ForestDryRich,24] 0.53 [ForestDryRich,25] 0.54 [ForestDryRich,26] 0.53 [ForestDryRich,27] 0.64 [ForestDryRich,28] 0.64 [ForestDryRich,29] 0.77 [ForestDryRich,30] 0.79 [ForestDryRich,31] 0.79 [ForestDryRich,32] 0.83 [ForestDryRich,35] 0.89 [ForestDryRich,46] 0.54 [ForestDryRich,47] 0.63 [ForestDryRich,48] 0.65 [ForestDryRich,49] 0.76 [ForestDryRich,50] 0.79 [ForestDryRich,51] 0.79 [ForestDryRich,52] 0.79 [ForestDryRich,53] 0.82 [ForestDryRich,54] 0.86 [ForestDryRich,57] 0.91 [ForestDryRich,65] 0.44 [ForestDryRich,66] 0.49 [ForestDryRich,67] 0.59 [ForestDryRich,68] 0.66 [ForestDryRich,69] 0.76 [ForestDryRich,70] 0.79 [ForestDryRich,72] 0.81 [ForestDryRich,75] 0.88 [ForestDryRich,76] 0.9 [ForestDryRich,78] 0.98 [ForestDryRich,79] 1 [ForestDryRich,86] 0.49 [ForestDryRich,87] 0.61 [ForestDryRich,88] 0.67 [ForestDryRich,90] 0.82 [ForestDryRich,91] 0.85 [ForestDryRich,92] 0.86 [ForestDryRich,93] 0.86 [ForestDryRich,97] 0.97 [ForestDryRich,98] 0.97 [ForestDryRich,99] 0.99 [ForestDryRich,106] 0.63 [ForestDryRich,107] 0.64 [ForestDryRich,108] 0.68 [ForestDryRich,109] 0.7 [ForestDryRich,110] 0.78 [ForestDryRich,111] 0.81 [ForestDryRich,113] 0.88 [ForestDryRich,114] 0.9 [ForestDryRich,115] 0.94 [ForestDryRich,116] 0.98 [ForestDryRich,117] 0.96 [ForestDryRich,118] 0.97 [ForestDryRich,119] 0.97 [ForestDryRich,120] 0.97 [ForestDryRich,127] 0.7 [ForestDryRich,135] 0.95 [ForestDryRich,136] 0.98 [ForestDryRich,147] 0.71 [ForestDryRich,151] 0.76 [ForestDryRich,152] 0.8 [ForestDryRich,153] 0.86 [ForestDryRich,159] 0.94 [ForestDryRich,178] 0.91 [ForestDryRich,179] 0.92 [ForestDryRich,180] 0.94 [ForestDryRich,181] 0.57 [ForestDryRich,200] 0.91 [ForestDryRich,214] 0.84 [ForestDryRich,225] 0.67 [ForestDryRich,248] 0.73 [ForestDryRich,266] 0.64 [ForestDryRich,268] 0.69 [ForestDryRich,270] 0.69 [ForestDryRich,271] 0.68 [ForestDryRich,291] 0.65 [ForestDryRich,292] 0.65 [ForestDryRich,376] 0.77 [ForestWetPoor,32] 0.98 [ForestWetPoor,51] 0.96 [ForestWetRich,6] 0.6 [ForestWetRich,10] 0.89 [ForestWetRich,11] 0.89 [ForestWetRich,15] 0.91 [ForestWetRich,24] 0.55 [ForestWetRich,25] 0.57 [ForestWetRich,26] 0.56 [ForestWetRich,27] 0.7 [ForestWetRich,28] 0.74 [ForestWetRich,29] 0.85 [ForestWetRich,30] 0.87 [ForestWetRich,31] 0.88 [ForestWetRich,32] 0.88 [ForestWetRich,35] 0.9 [ForestWetRich,46] 0.6 [ForestWetRich,47] 0.69 [ForestWetRich,48] 0.74 [ForestWetRich,49] 0.83 [ForestWetRich,50] 0.87 [ForestWetRich,51] 0.88 [ForestWetRich,52] 0.89 [ForestWetRich,53] 0.87 [ForestWetRich,54] 0.9 [ForestWetRich,63] 0.29 [ForestWetRich,64] 0.4 [ForestWetRich,65] 0.49 [ForestWetRich,66] 0.55 [ForestWetRich,67] 0.66 [ForestWetRich,69] 0.82 [ForestWetRich,70] 0.89 [ForestWetRich,79] 0.97 [ForestWetRich,82] 0.31 [ForestWetRich,86] 0.56 [ForestWetRich,87] 0.65 [ForestWetRich,90] 0.85 [ForestWetRich,91] 0.87 [ForestWetRich,106] 0.65 [ForestWetRich,107] 0.66 [ForestWetRich,108] 0.69 [ForestWetRich,110] 0.81 [ForestWetRich,111] 0.83 [ForestWetRich,114] 0.92 [ForestWetRich,120] 0.96 [ForestWetRich,127] 0.7 [ForestWetRich,129] 0.71 [ForestWetRich,130] 0.73 [ForestWetRich,151] 0.75 [ForestWetRich,159] 0.88 [ForestWetRich,179] 0.84 [ForestWetRich,181] 0.57 [ForestWetRich,185] 0.66 [ForestWetRich,186] 0.66 [ForestWetRich,187] 0.67 [ForestWetRich,188] 0.72 [ForestWetRich,189] 0.72 [ForestWetRich,205] 0.66 [ForestWetRich,206] 0.66 [ForestWetRich,208] 0.72 [ForestWetRich,212] 0.7 [ForestWetRich,213] 0.73 [ForestWetRich,214] 0.8 [ForestWetRich,225] 0.66 [ForestWetRich,226] 0.66 [ForestWetRich,228] 0.75 [ForestWetRich,229] 0.74 [ForestWetRich,230] 0.73 [ForestWetRich,233] 0.74 [ForestWetRich,234] 0.77 [ForestWetRich,249] 0.74 [ForestWetRich,253] 0.73 [ForestWetRich,270] 0.72 [ForestWetRich,271] 0.72 [ForestWetRich,273] 0.72 [ForestWetRich,292] 0.66 [ForestWetRich,313] 0.68 [ForestWetRich,333] 0.68 [ForestWetRich,353] 0.7 [ForestWetRich,372] 0.7 [ForestWetRich,374] 0.72 [ForestWetRich,375] 0.69 [ForestWetRich,394] 0.69 [OpenDryRich,6] 0.61 [OpenDryRich,10] 0.88 [OpenDryRich,11] 0.89 [OpenDryRich,15] 0.93 [OpenDryRich,24] 0.53 [OpenDryRich,25] 0.54 [OpenDryRich,26] 0.58 [OpenDryRich,27] 0.72 [OpenDryRich,28] 0.74 [OpenDryRich,29] 0.85 [OpenDryRich,30] 0.87 [OpenDryRich,31] 0.88 [OpenDryRich,32] 0.91 [OpenDryRich,35] 0.93 [OpenDryRich,46] 0.58 [OpenDryRich,47] 0.71 [OpenDryRich,48] 0.73 [OpenDryRich,49] 0.82 [OpenDryRich,50] 0.87 [OpenDryRich,51] 0.89 [OpenDryRich,52] 0.9 [OpenDryRich,53] 0.9 [OpenDryRich,54] 0.91 [OpenDryRich,57] 0.95 [OpenDryRich,65] 0.43 [OpenDryRich,66] 0.55 [OpenDryRich,67] 0.67 [OpenDryRich,68] 0.75 [OpenDryRich,69] 0.81 [OpenDryRich,70] 0.87 [OpenDryRich,72] 0.89 [OpenDryRich,75] 0.92 [OpenDryRich,76] 0.95 [OpenDryRich,78] 0.96 [OpenDryRich,79] 0.96 [OpenDryRich,86] 0.52 [OpenDryRich,87] 0.65 [OpenDryRich,88] 0.73 [OpenDryRich,90] 0.85 [OpenDryRich,91] 0.87 [OpenDryRich,92] 0.93 [OpenDryRich,93] 0.94 [OpenDryRich,97] 0.93 [OpenDryRich,98] 0.93 [OpenDryRich,99] 0.96 [OpenDryRich,106] 0.66 [OpenDryRich,107] 0.67 [OpenDryRich,108] 0.7 [OpenDryRich,109] 0.76 [OpenDryRich,110] 0.78 [OpenDryRich,111] 0.81 [OpenDryRich,113] 0.9 [OpenDryRich,114] 0.91 [OpenDryRich,115] 0.91 [OpenDryRich,116] 0.92 [OpenDryRich,117] 0.89 [OpenDryRich,118] 0.92 [OpenDryRich,119] 0.91 [OpenDryRich,120] 0.94 [OpenDryRich,127] 0.7 [OpenDryRich,135] 0.93 [OpenDryRich,136] 0.93 [OpenDryRich,147] 0.68 [OpenDryRich,151] 0.74 [OpenDryRich,152] 0.77 [OpenDryRich,153] 0.85 [OpenDryRich,159] 0.88 [OpenDryRich,178] 0.91 [OpenDryRich,179] 0.91 [OpenDryRich,180] 0.92 [OpenDryRich,181] 0.47 [OpenDryRich,200] 0.88 [OpenDryRich,214] 0.8 [OpenDryRich,225] 0.61 [OpenDryRich,248] 0.7 [OpenDryRich,266] 0.58 [OpenDryRich,268] 0.65 [OpenDryRich,270] 0.67 [OpenDryRich,271] 0.68 [OpenDryRich,291] 0.63 [OpenDryRich,292] 0.63 [OpenDryRich,376] 0.75 [OpenWetPoor,32] 0.94 [OpenWetPoor,51] 0.94 [OpenWetRich,6] 0.61 [OpenWetRich,10] 0.82 [OpenWetRich,11] 0.85 [OpenWetRich,15] 0.86 [OpenWetRich,24] 0.54 [OpenWetRich,25] 0.54 [OpenWetRich,26] 0.53 [OpenWetRich,27] 0.68 [OpenWetRich,28] 0.69 [OpenWetRich,29] 0.79 [OpenWetRich,30] 0.81 [OpenWetRich,31] 0.85 [OpenWetRich,32] 0.85 [OpenWetRich,35] 0.86 [OpenWetRich,46] 0.55 [OpenWetRich,47] 0.66 [OpenWetRich,48] 0.69 [OpenWetRich,49] 0.75 [OpenWetRich,50] 0.81 [OpenWetRich,51] 0.85 [OpenWetRich,52] 0.85 [OpenWetRich,53] 0.84 [OpenWetRich,54] 0.85 [OpenWetRich,63] 0.33 [OpenWetRich,64] 0.45 [OpenWetRich,65] 0.47 [OpenWetRich,66] 0.53 [OpenWetRich,67] 0.61 [OpenWetRich,69] 0.75 [OpenWetRich,70] 0.82 [OpenWetRich,79] 0.97 [OpenWetRich,82] 0.38 [OpenWetRich,86] 0.52 [OpenWetRich,87] 0.61 [OpenWetRich,90] 0.85 [OpenWetRich,91] 0.86 [OpenWetRich,106] 0.65 [OpenWetRich,107] 0.66 [OpenWetRich,108] 0.72 [OpenWetRich,110] 0.81 [OpenWetRich,111] 0.83 [OpenWetRich,114] 0.86 [OpenWetRich,120] 0.96 [OpenWetRich,127] 0.7 [OpenWetRich,129] 0.73 [OpenWetRich,130] 0.76 [OpenWetRich,151] 0.77 [OpenWetRich,159] 0.9 [OpenWetRich,179] 0.9 [OpenWetRich,181] 0.57 [OpenWetRich,185] 0.67 [OpenWetRich,186] 0.68 [OpenWetRich,187] 0.68 [OpenWetRich,188] 0.72 [OpenWetRich,189] 0.72 [OpenWetRich,205] 0.66 [OpenWetRich,206] 0.66 [OpenWetRich,208] 0.72 [OpenWetRich,212] 0.71 [OpenWetRich,213] 0.75 [OpenWetRich,214] 0.88 [OpenWetRich,225] 0.68 [OpenWetRich,226] 0.67 [OpenWetRich,228] 0.76 [OpenWetRich,229] 0.76 [OpenWetRich,230] 0.75 [OpenWetRich,233] 0.77 [OpenWetRich,234] 0.85 [OpenWetRich,249] 0.75 [OpenWetRich,253] 0.76 [OpenWetRich,270] 0.73 [OpenWetRich,271] 0.73 [OpenWetRich,273] 0.76 [OpenWetRich,292] 0.69 [OpenWetRich,313] 0.68 [OpenWetRich,333] 0.68 [OpenWetRich,353] 0.68 [OpenWetRich,372] 0.67 [OpenWetRich,374] 0.7 [OpenWetRich,375] 0.71 [OpenWetRich,394] 0.69 ;
param Richness default 0 := [ForestDryRich,6] 0.45 [ForestDryRich,10] 0.78 [ForestDryRich,11] 0.79 [ForestDryRich,15] 0.82 [ForestDryRich,24] 0.38 [ForestDryRich,25] 0.39 [ForestDryRich,26] 0.39 [ForestDryRich,27] 0.55 [ForestDryRich,28] 0.57 [ForestDryRich,29] 0.73 [ForestDryRich,30] 0.77 [ForestDryRich,31] 0.78 [ForestDryRich,32] 0.8 [ForestDryRich,35] 0.82 [ForestDryRich,46] 0.4 [ForestDryRich,47] 0.55 [ForestDryRich,48] 0.57 [ForestDryRich,49] 0.69 [ForestDryRich,50] 0.76 [ForestDryRich,51] 0.79 [ForestDryRich,52] 0.79 [ForestDryRich,53] 0.77 [ForestDryRich,54] 0.81 [ForestDryRich,57] 0.86 [ForestDryRich,65] 0.28 [ForestDryRich,66] 0.35 [ForestDryRich,67] 0.49 [ForestDryRich,68] 0.57 [ForestDryRich,69] 0.67 [ForestDryRich,70] 0.76 [ForestDryRich,72] 0.8 [ForestDryRich,75] 0.83 [ForestDryRich,76] 0.86 [ForestDryRich,78] 0.95 [ForestDryRich,79] 0.96 [ForestDryRich,86] 0.34 [ForestDryRich,87] 0.44 [ForestDryRich,88] 0.54 [ForestDryRich,90] 0.71 [ForestDryRich,91] 0.76 [ForestDryRich,92] 0.82 [ForestDryRich,93] 0.84 [ForestDryRich,97] 0.89 [ForestDryRich,98] 0.91 [ForestDryRich,99] 0.93 [ForestDryRich,106] 0.47 [ForestDryRich,107] 0.48 [ForestDryRich,108] 0.53 [ForestDryRich,109] 0.57 [ForestDryRich,110] 0.65 [ForestDryRich,111] 0.69 [ForestDryRich,113] 0.79 [ForestDryRich,114] 0.81 [ForestDryRich,115] 0.85 [ForestDryRich,116] 0.9 [ForestDryRich,117] 0.87 [ForestDryRich,118] 0.91 [ForestDryRich,119] 0.92 [ForestDryRich,120] 0.93 [ForestDryRich,127] 0.54 [ForestDryRich,135] 0.87 [ForestDryRich,136] 0.88 [ForestDryRich,147] 0.55 [ForestDryRich,151] 0.61 [ForestDryRich,152] 0.66 [ForestDryRich,153] 0.75 [ForestDryRich,159] 0.84 [ForestDryRich,178] 0.79 [ForestDryRich,179] 0.81 [ForestDryRich,180] 0.84 [ForestDryRich,181] 0.37 [ForestDryRich,200] 0.8 [ForestDryRich,214] 0.69 [ForestDryRich,225] 0.49 [ForestDryRich,248] 0.59 [ForestDryRich,266] 0.48 [ForestDryRich,268] 0.54 [ForestDryRich,270] 0.55 [ForestDryRich,271] 0.55 [ForestDryRich,291] 0.5 [ForestDryRich,292] 0.48 [ForestDryRich,376] 0.59 [ForestWetPoor,32] 0.82 [ForestWetPoor,51] 0.81 [ForestWetRich,6] 0.46 [ForestWetRich,10] 0.82 [ForestWetRich,11] 0.82 [ForestWetRich,15] 0.85 [ForestWetRich,24] 0.39 [ForestWetRich,25] 0.4 [ForestWetRich,26] 0.4 [ForestWetRich,27] 0.57 [ForestWetRich,28] 0.59 [ForestWetRich,29] 0.75 [ForestWetRich,30] 0.8 [ForestWetRich,31] 0.81 [ForestWetRich,32] 0.82 [ForestWetRich,35] 0.85 [ForestWetRich,46] 0.42 [ForestWetRich,47] 0.56 [ForestWetRich,48] 0.58 [ForestWetRich,49] 0.71 [ForestWetRich,50] 0.79 [ForestWetRich,51] 0.81 [ForestWetRich,52] 0.82 [ForestWetRich,53] 0.8 [ForestWetRich,54] 0.84 [ForestWetRich,63] 0.16 [ForestWetRich,64] 0.26 [ForestWetRich,65] 0.3 [ForestWetRich,66] 0.37 [ForestWetRich,67] 0.51 [ForestWetRich,69] 0.69 [ForestWetRich,70] 0.79 [ForestWetRich,79] 0.98 [ForestWetRich,82] 0.18 [ForestWetRich,86] 0.35 [ForestWetRich,87] 0.46 [ForestWetRich,90] 0.74 [ForestWetRich,91] 0.78 [ForestWetRich,106] 0.48 [ForestWetRich,107] 0.5 [ForestWetRich,108] 0.55 [ForestWetRich,110] 0.67 [ForestWetRich,111] 0.71 [ForestWetRich,114] 0.83 [ForestWetRich,120] 0.94 [ForestWetRich,127] 0.55 [ForestWetRich,129] 0.57 [ForestWetRich,130] 0.61 [ForestWetRich,151] 0.63 [ForestWetRich,159] 0.84 [ForestWetRich,179] 0.82 [ForestWetRich,181] 0.38 [ForestWetRich,185] 0.49 [ForestWetRich,186] 0.5 [ForestWetRich,187] 0.52 [ForestWetRich,188] 0.59 [ForestWetRich,189] 0.59 [ForestWetRich,205] 0.48 [ForestWetRich,206] 0.49 [ForestWetRich,208] 0.59 [ForestWetRich,212] 0.55 [ForestWetRich,213] 0.6 [ForestWetRich,214] 0.7 [ForestWetRich,225] 0.49 [ForestWetRich,226] 0.49 [ForestWetRich,228] 0.62 [ForestWetRich,229] 0.6 [ForestWetRich,230] 0.58 [ForestWetRich,233] 0.59 [ForestWetRich,234] 0.66 [ForestWetRich,249] 0.59 [ForestWetRich,253] 0.58 [ForestWetRich,270] 0.56 [ForestWetRich,271] 0.57 [ForestWetRich,273] 0.57 [ForestWetRich,292] 0.49 [ForestWetRich,313] 0.52 [ForestWetRich,333] 0.55 [ForestWetRich,353] 0.58 [ForestWetRich,372] 0.57 [ForestWetRich,374] 0.6 [ForestWetRich,375] 0.59 [ForestWetRich,394] 0.58 [OpenDryRich,6] 0.45 [OpenDryRich,10] 0.8 [OpenDryRich,11] 0.81 [OpenDryRich,15] 0.84 [OpenDryRich,24] 0.38 [OpenDryRich,25] 0.4 [OpenDryRich,26] 0.4 [OpenDryRich,27] 0.56 [OpenDryRich,28] 0.58 [OpenDryRich,29] 0.74 [OpenDryRich,30] 0.78 [OpenDryRich,31] 0.8 [OpenDryRich,32] 0.81 [OpenDryRich,35] 0.84 [OpenDryRich,46] 0.41 [OpenDryRich,47] 0.55 [OpenDryRich,48] 0.57 [OpenDryRich,49] 0.7 [OpenDryRich,50] 0.78 [OpenDryRich,51] 0.8 [OpenDryRich,52] 0.81 [OpenDryRich,53] 0.79 [OpenDryRich,54] 0.82 [OpenDryRich,57] 0.88 [OpenDryRich,65] 0.29 [OpenDryRich,66] 0.36 [OpenDryRich,67] 0.5 [OpenDryRich,68] 0.58 [OpenDryRich,69] 0.68 [OpenDryRich,70] 0.78 [OpenDryRich,72] 0.81 [OpenDryRich,75] 0.84 [OpenDryRich,76] 0.87 [OpenDryRich,78] 0.96 [OpenDryRich,79] 0.96 [OpenDryRich,86] 0.35 [OpenDryRich,87] 0.46 [OpenDryRich,88] 0.55 [OpenDryRich,90] 0.73 [OpenDryRich,91] 0.77 [OpenDryRich,92] 0.84 [OpenDryRich,93] 0.85 [OpenDryRich,97] 0.9 [OpenDryRich,98] 0.91 [OpenDryRich,99] 0.94 [OpenDryRich,106] 0.48 [OpenDryRich,107] 0.49 [OpenDryRich,108] 0.54 [OpenDryRich,109] 0.58 [OpenDryRich,110] 0.66 [OpenDryRich,111] 0.7 [OpenDryRich,113] 0.8 [OpenDryRich,114] 0.82 [OpenDryRich,115] 0.86 [OpenDryRich,116] 0.9 [OpenDryRich,117] 0.87 [OpenDryRich,118] 0.91 [OpenDryRich,119] 0.92 [OpenDryRich,120] 0.93 [OpenDryRich,127] 0.55 [OpenDryRich,135] 0.88 [OpenDryRich,136] 0.89 [OpenDryRich,147] 0.56 [OpenDryRich,151] 0.62 [OpenDryRich,152] 0.67 [OpenDryRich,153] 0.76 [OpenDryRich,159] 0.84 [OpenDryRich,178] 0.8 [OpenDryRich,179] 0.82 [OpenDryRich,180] 0.85 [OpenDryRich,181] 0.37 [OpenDryRich,200] 0.81 [OpenDryRich,214] 0.69 [OpenDryRich,225] 0.49 [OpenDryRich,248] 0.59 [OpenDryRich,266] 0.48 [OpenDryRich,268] 0.53 [OpenDryRich,270] 0.55 [OpenDryRich,271] 0.55 [OpenDryRich,291] 0.5 [OpenDryRich,292] 0.49 [OpenDryRich,376] 0.6 [OpenWetPoor,32] 0.83 [OpenWetPoor,51] 0.82 [OpenWetRich,6] 0.47 [OpenWetRich,10] 0.83 [OpenWetRich,11] 0.84 [OpenWetRich,15] 0.86 [OpenWetRich,24] 0.4 [OpenWetRich,25] 0.41 [OpenWetRich,26] 0.41 [OpenWetRich,27] 0.58 [OpenWetRich,28] 0.6 [OpenWetRich,29] 0.77 [OpenWetRich,30] 0.81 [OpenWetRich,31] 0.82 [OpenWetRich,32] 0.84 [OpenWetRich,35] 0.85 [OpenWetRich,46] 0.43 [OpenWetRich,47] 0.57 [OpenWetRich,48] 0.59 [OpenWetRich,49] 0.71 [OpenWetRich,50] 0.8 [OpenWetRich,51] 0.82 [OpenWetRich,52] 0.83 [OpenWetRich,53] 0.81 [OpenWetRich,54] 0.85 [OpenWetRich,63] 0.16 [OpenWetRich,64] 0.27 [OpenWetRich,65] 0.3 [OpenWetRich,66] 0.37 [OpenWetRich,67] 0.51 [OpenWetRich,69] 0.7 [OpenWetRich,70] 0.8 [OpenWetRich,79] 1 [OpenWetRich,82] 0.18 [OpenWetRich,86] 0.36 [OpenWetRich,87] 0.47 [OpenWetRich,90] 0.75 [OpenWetRich,91] 0.79 [OpenWetRich,106] 0.49 [OpenWetRich,107] 0.5 [OpenWetRich,108] 0.55 [OpenWetRich,110] 0.68 [OpenWetRich,111] 0.72 [OpenWetRich,114] 0.84 [OpenWetRich,120] 0.96 [OpenWetRich,127] 0.56 [OpenWetRich,129] 0.57 [OpenWetRich,130] 0.62 [OpenWetRich,151] 0.63 [OpenWetRich,159] 0.87 [OpenWetRich,179] 0.85 [OpenWetRich,181] 0.39 [OpenWetRich,185] 0.5 [OpenWetRich,186] 0.51 [OpenWetRich,187] 0.53 [OpenWetRich,188] 0.6 [OpenWetRich,189] 0.59 [OpenWetRich,205] 0.5 [OpenWetRich,206] 0.5 [OpenWetRich,208] 0.6 [OpenWetRich,212] 0.57 [OpenWetRich,213] 0.62 [OpenWetRich,214] 0.73 [OpenWetRich,225] 0.5 [OpenWetRich,226] 0.5 [OpenWetRich,228] 0.62 [OpenWetRich,229] 0.61 [OpenWetRich,230] 0.59 [OpenWetRich,233] 0.61 [OpenWetRich,234] 0.7 [OpenWetRich,249] 0.6 [OpenWetRich,253] 0.6 [OpenWetRich,270] 0.57 [OpenWetRich,271] 0.58 [OpenWetRich,273] 0.59 [OpenWetRich,292] 0.51 [OpenWetRich,313] 0.53 [OpenWetRich,333] 0.57 [OpenWetRich,353] 0.59 [OpenWetRich,372] 0.57 [OpenWetRich,374] 0.62 [OpenWetRich,375] 0.62 [OpenWetRich,394] 0.59 ;
param TransitionCost default 1 ; 
param b := 50 ; 
